c @top --> 97
c p27@v1 --> 95
c p27@v0 --> 94
c p15 --> 93
c p28 --> 92
c p10@v2 --> 89
c p10@v0 --> 87
c p26 --> 86
c p17@v1 --> 82
c p22@v2 --> 78
c p22@v0 --> 76
c p19@v1 --> 70
c p16 --> 67
c p10@v3 --> 90
c p14@v3 --> 66
c p14@v2 --> 65
c p14@v1 --> 64
c p24@v0 --> 72
c p3@v2 --> 62
c p3@v0 --> 60
c p3@v1 --> 61
c p7@v0 --> 29
c p30 --> 27
c p25 --> 28
c p8@v4 --> 25
c p1@v0 --> 38
c p22@v1 --> 77
c p8@v3 --> 24
c p4@v1 --> 44
c p8@v1 --> 22
c p32@v2 --> 17
c p8@v2 --> 23
c p29@v0 --> 18
c p32@v1 --> 16
c p19@v0 --> 69
c p31@v3 --> 14
c p9@v2 --> 52
c p29@v1 --> 19
c p10@v1 --> 88
c p20 --> 80
c p1@v4 --> 42
c p34@v0 --> 1
c p34@v1 --> 2
c p8@v0 --> 21
c p4@v2 --> 45
c p29@v2 --> 20
c p33@v1 --> 5
c p18 --> 68
c p2@v1 --> 55
c p9@v3 --> 53
c p33@v0 --> 4
c p33@v3 --> 7
c p34@v2 --> 3
c p4@v3 --> 46
c p14@v0 --> 63
c p33@v4 --> 8
c p0 --> 79
c p33@v5 --> 9
c p7@v2 --> 31
c p13@v0 --> 57
c p8@v5 --> 26
c p5@v2 --> 36
c p31@v1 --> 12
c p10@v4 --> 91
c p31@v0 --> 11
c p2@v2 --> 56
c p2@v0 --> 54
c p31@v2 --> 13
c p17@v3 --> 84
c p7@v1 --> 30
c p11 --> 32
c p27@v2 --> 96
c p6 --> 33
c p5@v0 --> 34
c p23 --> 85
c p5@v1 --> 35
c p5@v3 --> 37
c p21 --> 75
c p24@v2 --> 74
c p24@v1 --> 73
c p1@v1 --> 39
c p1@v2 --> 40
c p1@v3 --> 41
c p4@v0 --> 43
c p17@v0 --> 81
c p12@v2 --> 49
c p12@v0 --> 47
c p12@v1 --> 48
c p9@v0 --> 50
c p33@v2 --> 6
c p9@v1 --> 51
c p17@v2 --> 83
c p32@v0 --> 15
c p33@v6 --> 10
c p13@v1 --> 58
c p19@v2 --> 71
c p13@v2 --> 59
p cnf 97 173
-31 -53 0
-52 -91 0
-30 -53 0
-29 -52 0
-29 -51 0
-29 -50 0
-91 -50 0
-12 79 0
-31 79 0
-51 -91 0
-29 -26 0
-29 -25 0
-29 -21 0
79 -13 0
-11 -17 0
-87 -53 0
-29 -24 0
-11 -16 0
-29 -23 0
-88 -53 0
-90 -53 0
-89 -53 0
1 2 3 0
-1 -2 0
-1 -3 0
-2 -3 0
4 5 6 7 8 9 10 0
-4 -5 0
-4 -6 0
-4 -7 0
-4 -8 0
-4 -9 0
-4 -10 0
-5 -6 0
-5 -7 0
-5 -8 0
-5 -9 0
-5 -10 0
-6 -7 0
-6 -8 0
-6 -9 0
-6 -10 0
-7 -8 0
-7 -9 0
-7 -10 0
-8 -9 0
-8 -10 0
-9 -10 0
11 12 13 14 0
-11 -12 0
-11 -13 0
-11 -14 0
-12 -13 0
-12 -14 0
-13 -14 0
15 16 17 0
-15 -16 0
-15 -17 0
-16 -17 0
18 19 20 0
-18 -19 0
-18 -20 0
-19 -20 0
21 22 23 24 25 26 0
-21 -22 0
-21 -23 0
-21 -24 0
-21 -25 0
-21 -26 0
-22 -23 0
-22 -24 0
-22 -25 0
-22 -26 0
-23 -24 0
-23 -25 0
-23 -26 0
-24 -25 0
-24 -26 0
-25 -26 0
29 30 31 0
-29 -30 0
-29 -31 0
-30 -31 0
34 35 36 37 0
-34 -35 0
-34 -36 0
-34 -37 0
-35 -36 0
-35 -37 0
-36 -37 0
38 39 40 41 42 0
-38 -39 0
-38 -40 0
-38 -41 0
-38 -42 0
-39 -40 0
-39 -41 0
-39 -42 0
-40 -41 0
-40 -42 0
-41 -42 0
43 44 45 46 0
-43 -44 0
-43 -45 0
-43 -46 0
-44 -45 0
-44 -46 0
-45 -46 0
47 48 49 0
-47 -48 0
-47 -49 0
-48 -49 0
50 51 52 53 0
-50 -51 0
-50 -52 0
-50 -53 0
-51 -52 0
-51 -53 0
-52 -53 0
54 55 56 0
-54 -55 0
-54 -56 0
-55 -56 0
57 58 59 0
-57 -58 0
-57 -59 0
-58 -59 0
60 61 62 0
-60 -61 0
-60 -62 0
-61 -62 0
63 64 65 66 0
-63 -64 0
-63 -65 0
-63 -66 0
-64 -65 0
-64 -66 0
-65 -66 0
69 70 71 0
-69 -70 0
-69 -71 0
-70 -71 0
72 73 74 0
-72 -73 0
-72 -74 0
-73 -74 0
76 77 78 0
-76 -77 0
-76 -78 0
-77 -78 0
81 82 83 84 0
-81 -82 0
-81 -83 0
-81 -84 0
-82 -83 0
-82 -84 0
-83 -84 0
87 88 89 90 91 0
-87 -88 0
-87 -89 0
-87 -90 0
-87 -91 0
-88 -89 0
-88 -90 0
-88 -91 0
-89 -90 0
-89 -91 0
-90 -91 0
94 95 96 0
-94 -95 0
-94 -96 0
-95 -96 0
97 -97 0
